p tw 117 130
1 2
2 30
3 20
4 5
5 6
6 7
6 9
7 8
8 9
8 11
9 10
10 11
11 12
12 13
13 15
14 22
15 16
16 17
17 18
18 19
19 20
20 21
22 23
23 24
23 50
24 25
24 26
25 20
26 27
27 28
28 29
29 31
30 41
31 32
32 33
33 34
34 35
35 36
35 47
36 37
37 38
38 39
39 40
40 42
41 52
42 43
43 44
44 45
45 46
46 32
47 48
48 49
49 20
50 51
51 53
52 63
53 54
54 55
55 56
55 61
56 57
57 58
58 59
59 60
60 61
60 64
61 62
62 64
63 74
64 65
65 66
65 67
66 67
67 68
68 69
69 70
70 71
70 90
71 72
72 73
72 90
73 75
74 85
75 76
76 77
77 78
78 79
79 80
80 81
81 82
82 83
83 84
84 86
84 90
85 96
85 14
86 87
87 88
88 89
89 81
90 91
91 92
92 93
93 94
93 100
94 95
95 97
96 107
97 98
98 99
99 20
100 101
101 102
102 103
102 116
103 104
104 105
105 106
106 108
107 3
108 109
109 110
110 111
111 112
112 113
113 114
114 115
115 4
116 117
117 4
